NAME          
ROWS
 N  OBJ
 L  c1
 L  c2
COLUMNS
    MARKER    'MARKER'                 'INTORG'
    x[1]      c1        222
    x[1]      c2        910
    x[1]      OBJ       -37
    x[2]      c1        575
    x[2]      c2        527
    x[2]      OBJ       -556
    x[3]      c1        358
    x[3]      c2        921
    x[3]      OBJ       -378
    x[4]      c1        84
    x[4]      c2        946
    x[4]      OBJ       -105
    x[5]      c1        708
    x[5]      c2        893
    x[5]      OBJ       -398
    x[6]      c1        913
    x[6]      c2        423
    x[6]      OBJ       -351
    x[7]      c1        728
    x[7]      c2        215
    x[7]      OBJ       -730
    x[8]      c1        750
    x[8]      c2        264
    x[8]      OBJ       -78
    x[9]      c1        241
    x[9]      c2        596
    x[9]      OBJ       -454
    x[10]     c1        316
    x[10]     c2        821
    x[10]     OBJ       -514
    x[11]     c1        701
    x[11]     c2        767
    x[11]     OBJ       -717
    x[12]     c1        799
    x[12]     c2        219
    x[12]     OBJ       -569
    x[13]     c1        702
    x[13]     c2        334
    x[13]     OBJ       -119
    x[14]     c1        980
    x[14]     c2        595
    x[14]     OBJ       -987
    x[15]     c1        675
    x[15]     c2        524
    x[15]     OBJ       -439
    x[16]     c1        449
    x[16]     c2        315
    x[16]     OBJ       -559
    x[17]     c1        845
    x[17]     c2        470
    x[17]     OBJ       -443
    x[18]     c1        902
    x[18]     c2        610
    x[18]     OBJ       -132
    x[19]     c1        255
    x[19]     c2        642
    x[19]     OBJ       -144
    x[20]     c1        960
    x[20]     c2        6
    x[20]     OBJ       -336
    x[21]     c1        515
    x[21]     c2        996
    x[21]     OBJ       -467
    x[22]     c1        985
    x[22]     c2        132
    x[22]     OBJ       -974
    x[23]     c1        795
    x[23]     c2        115
    x[23]     OBJ       -318
    x[24]     c1        211
    x[24]     c2        403
    x[24]     OBJ       -323
    x[25]     c1        420
    x[25]     c2        150
    x[25]     OBJ       -769
    x[26]     c1        662
    x[26]     c2        819
    x[26]     OBJ       -273
    x[27]     c1        881
    x[27]     c2        89
    x[27]     OBJ       -313
    x[28]     c1        124
    x[28]     c2        188
    x[28]     OBJ       -543
    x[29]     c1        411
    x[29]     c2        408
    x[29]     OBJ       -270
    x[30]     c1        622
    x[30]     c2        945
    x[30]     OBJ       -315
    x[31]     c1        607
    x[31]     c2        883
    x[31]     OBJ       -746
    x[32]     c1        992
    x[32]     c2        892
    x[32]     OBJ       -839
    x[33]     c1        56
    x[33]     c2        406
    x[33]     OBJ       -560
    x[34]     c1        232
    x[34]     c2        273
    x[34]     OBJ       -343
    x[35]     c1        984
    x[35]     c2        459
    x[35]     OBJ       -714
    x[36]     c1        82
    x[36]     c2        657
    x[36]     OBJ       -285
    x[37]     c1        77
    x[37]     c2        448
    x[37]     OBJ       -732
    x[38]     c1        719
    x[38]     c2        779
    x[38]     OBJ       -482
    x[39]     c1        777
    x[39]     c2        771
    x[39]     OBJ       -557
    x[40]     c1        697
    x[40]     c2        62
    x[40]     OBJ       -583
RHS
    rhs       c1        11506
    rhs       c2        10436
RANGES
BOUNDS
 BV bounds    x[1]
 BV bounds    x[2]
 BV bounds    x[3]
 BV bounds    x[4]
 BV bounds    x[5]
 BV bounds    x[6]
 BV bounds    x[7]
 BV bounds    x[8]
 BV bounds    x[9]
 BV bounds    x[10]
 BV bounds    x[11]
 BV bounds    x[12]
 BV bounds    x[13]
 BV bounds    x[14]
 BV bounds    x[15]
 BV bounds    x[16]
 BV bounds    x[17]
 BV bounds    x[18]
 BV bounds    x[19]
 BV bounds    x[20]
 BV bounds    x[21]
 BV bounds    x[22]
 BV bounds    x[23]
 BV bounds    x[24]
 BV bounds    x[25]
 BV bounds    x[26]
 BV bounds    x[27]
 BV bounds    x[28]
 BV bounds    x[29]
 BV bounds    x[30]
 BV bounds    x[31]
 BV bounds    x[32]
 BV bounds    x[33]
 BV bounds    x[34]
 BV bounds    x[35]
 BV bounds    x[36]
 BV bounds    x[37]
 BV bounds    x[38]
 BV bounds    x[39]
 BV bounds    x[40]
ENDATA
